c nIsolatedPIs 0
c maxPI 32
p cnf 225 580
c gate 33 -7 23 0
-7 -33 0
23 -33 0
7 -23 33 0
c gate 34 6 -22 0
6 -34 0
-22 -34 0
-6 22 34 0
c gate 35 7 -23 0
7 -35 0
-23 -35 0
-7 23 35 0
c gate 36 -34 -35 0
-34 -36 0
-35 -36 0
34 35 36 0
c gate 37 -2 18 0
-2 -37 0
18 -37 0
2 -18 37 0
c gate 38 -1 17 0
-1 -38 0
17 -38 0
1 -17 38 0
c gate 39 -37 -38 0
-37 -39 0
-38 -39 0
37 38 39 0
c gate 40 2 -18 0
2 -40 0
-18 -40 0
-2 18 40 0
c gate 41 3 -19 0
3 -41 0
-19 -41 0
-3 19 41 0
c gate 42 -40 -41 0
-40 -42 0
-41 -42 0
40 41 42 0
c gate 43 -39 42 0
-39 -43 0
42 -43 0
39 -42 43 0
c gate 44 -4 20 0
-4 -44 0
20 -44 0
4 -20 44 0
c gate 45 -3 19 0
-3 -45 0
19 -45 0
3 -19 45 0
c gate 46 -44 -45 0
-44 -46 0
-45 -46 0
44 45 46 0
c gate 47 -43 46 0
-43 -47 0
46 -47 0
43 -46 47 0
c gate 48 5 -21 0
5 -48 0
-21 -48 0
-5 21 48 0
c gate 49 4 -20 0
4 -49 0
-20 -49 0
-4 20 49 0
c gate 50 -48 -49 0
-48 -50 0
-49 -50 0
48 49 50 0
c gate 51 -47 50 0
-47 -51 0
50 -51 0
47 -50 51 0
c gate 52 -6 22 0
-6 -52 0
22 -52 0
6 -22 52 0
c gate 53 -34 -52 0
-34 -53 0
-52 -53 0
34 52 53 0
c gate 54 -5 21 0
-5 -54 0
21 -54 0
5 -21 54 0
c gate 55 53 -54 0
53 -55 0
-54 -55 0
-53 54 55 0
c gate 56 -51 55 0
-51 -56 0
55 -56 0
51 -55 56 0
c gate 57 36 -56 0
36 -57 0
-56 -57 0
-36 56 57 0
c gate 58 -33 -57 0
-33 -58 0
-57 -58 0
33 57 58 0
c gate 59 8 24 0
8 -59 0
24 -59 0
-8 -24 59 0
c gate 60 -8 -24 0
-8 -60 0
-24 -60 0
8 24 60 0
c gate 61 -59 -60 0
-59 -61 0
-60 -61 0
59 60 61 0
c gate 62 58 -61 0
58 -62 0
-61 -62 0
-58 61 62 0
c gate 63 36 61 0
36 -63 0
61 -63 0
-36 -61 63 0
c gate 64 58 63 0
58 -64 0
63 -64 0
-58 -63 64 0
c gate 65 -62 -64 0
-62 -65 0
-64 -65 0
62 64 65 0
c gate 66 -11 -27 0
-11 -66 0
-27 -66 0
11 27 66 0
c gate 67 11 27 0
11 -67 0
27 -67 0
-11 -27 67 0
c gate 68 -66 -67 0
-66 -68 0
-67 -68 0
66 67 68 0
c gate 69 10 -26 0
10 -69 0
-26 -69 0
-10 26 69 0
c gate 70 8 -24 0
8 -70 0
-24 -70 0
-8 24 70 0
c gate 71 9 25 0
9 -71 0
25 -71 0
-9 -25 71 0
c gate 72 -9 -25 0
-9 -72 0
-25 -72 0
9 25 72 0
c gate 73 -71 -72 0
-71 -73 0
-72 -73 0
71 72 73 0
c gate 74 -70 -73 0
-70 -74 0
-73 -74 0
70 73 74 0
c gate 75 -10 26 0
-10 -75 0
26 -75 0
10 -26 75 0
c gate 76 -9 25 0
-9 -76 0
25 -76 0
9 -25 76 0
c gate 77 -75 -76 0
-75 -77 0
-76 -77 0
75 76 77 0
c gate 78 -74 77 0
-74 -78 0
77 -78 0
74 -77 78 0
c gate 79 -69 -78 0
-69 -79 0
-78 -79 0
69 78 79 0
c gate 80 62 77 0
62 -80 0
77 -80 0
-62 -77 80 0
c gate 81 79 -80 0
79 -81 0
-80 -81 0
-79 80 81 0
c gate 82 -68 81 0
-68 -82 0
81 -82 0
68 -81 82 0
c gate 83 68 -81 0
68 -83 0
-81 -83 0
-68 81 83 0
c gate 84 -82 -83 0
-82 -84 0
-83 -84 0
82 83 84 0
c gate 85 79 -84 0
79 -85 0
-84 -85 0
-79 84 85 0
c gate 86 -15 -31 0
-15 -86 0
-31 -86 0
15 31 86 0
c gate 87 15 31 0
15 -87 0
31 -87 0
-15 -31 87 0
c gate 88 -86 -87 0
-86 -88 0
-87 -88 0
86 87 88 0
c gate 89 -14 -30 0
-14 -89 0
-30 -89 0
14 30 89 0
c gate 90 14 30 0
14 -90 0
30 -90 0
-14 -30 90 0
c gate 91 -89 -90 0
-89 -91 0
-90 -91 0
89 90 91 0
c gate 92 -13 -29 0
-13 -92 0
-29 -92 0
13 29 92 0
c gate 93 12 28 0
12 -93 0
28 -93 0
-12 -28 93 0
c gate 94 -12 -28 0
-12 -94 0
-28 -94 0
12 28 94 0
c gate 95 -93 -94 0
-93 -95 0
-94 -95 0
93 94 95 0
c gate 96 -10 -26 0
-10 -96 0
-26 -96 0
10 26 96 0
c gate 97 -7 -23 0
-7 -97 0
-23 -97 0
7 23 97 0
c gate 98 -59 97 0
-59 -98 0
97 -98 0
59 -97 98 0
c gate 99 -60 -72 0
-60 -99 0
-72 -99 0
60 72 99 0
c gate 100 -98 99 0
-98 -100 0
99 -100 0
98 -99 100 0
c gate 101 2 18 0
2 -101 0
18 -101 0
-2 -18 101 0
c gate 102 1 17 0
1 -102 0
17 -102 0
-1 -17 102 0
c gate 103 -101 -102 0
-101 -103 0
-102 -103 0
101 102 103 0
c gate 104 -2 -18 0
-2 -104 0
-18 -104 0
2 18 104 0
c gate 105 -3 -19 0
-3 -105 0
-19 -105 0
3 19 105 0
c gate 106 -104 -105 0
-104 -106 0
-105 -106 0
104 105 106 0
c gate 107 -103 106 0
-103 -107 0
106 -107 0
103 -106 107 0
c gate 108 4 20 0
4 -108 0
20 -108 0
-4 -20 108 0
c gate 109 3 19 0
3 -109 0
19 -109 0
-3 -19 109 0
c gate 110 -108 -109 0
-108 -110 0
-109 -110 0
108 109 110 0
c gate 111 -107 110 0
-107 -111 0
110 -111 0
107 -110 111 0
c gate 112 -5 -21 0
-5 -112 0
-21 -112 0
5 21 112 0
c gate 113 -4 -20 0
-4 -113 0
-20 -113 0
4 20 113 0
c gate 114 -112 -113 0
-112 -114 0
-113 -114 0
112 113 114 0
c gate 115 -111 114 0
-111 -115 0
114 -115 0
111 -114 115 0
c gate 116 5 21 0
5 -116 0
21 -116 0
-5 -21 116 0
c gate 117 -53 -116 0
-53 -117 0
-116 -117 0
53 116 117 0
c gate 118 -115 117 0
-115 -118 0
117 -118 0
115 -117 118 0
c gate 119 -6 -22 0
-6 -119 0
-22 -119 0
6 22 119 0
c gate 120 -118 -119 0
-118 -120 0
-119 -120 0
118 119 120 0
c gate 121 -33 -35 0
-33 -121 0
-35 -121 0
33 35 121 0
c gate 122 61 -121 0
61 -122 0
-121 -122 0
-61 121 122 0
c gate 123 -120 122 0
-120 -123 0
122 -123 0
120 -122 123 0
c gate 124 100 -123 0
100 -124 0
-123 -124 0
-100 123 124 0
c gate 125 -71 -124 0
-71 -125 0
-124 -125 0
71 124 125 0
c gate 126 -96 -125 0
-96 -126 0
-125 -126 0
96 125 126 0
c gate 127 10 26 0
10 -127 0
26 -127 0
-10 -26 127 0
c gate 128 -67 -127 0
-67 -128 0
-127 -128 0
67 127 128 0
c gate 129 -126 128 0
-126 -129 0
128 -129 0
126 -128 129 0
c gate 130 -66 -129 0
-66 -130 0
-129 -130 0
66 129 130 0
c gate 131 95 130 0
95 -131 0
130 -131 0
-95 -130 131 0
c gate 132 13 29 0
13 -132 0
29 -132 0
-13 -29 132 0
c gate 133 -93 -132 0
-93 -133 0
-132 -133 0
93 132 133 0
c gate 134 -131 133 0
-131 -134 0
133 -134 0
131 -133 134 0
c gate 135 -92 -134 0
-92 -135 0
-134 -135 0
92 134 135 0
c gate 136 91 -135 0
91 -136 0
-135 -136 0
-91 135 136 0
c gate 137 -89 -136 0
-89 -137 0
-136 -137 0
89 136 137 0
c gate 138 88 -137 0
88 -138 0
-137 -138 0
-88 137 138 0
c gate 139 -86 -138 0
-86 -139 0
-138 -139 0
86 138 139 0
c gate 140 91 -133 0
91 -140 0
-133 -140 0
-91 133 140 0
c gate 141 -90 -140 0
-90 -141 0
-140 -141 0
90 140 141 0
c gate 142 88 -141 0
88 -142 0
-141 -142 0
-88 141 142 0
c gate 143 -87 -142 0
-87 -143 0
-142 -143 0
87 142 143 0
c gate 144 -16 -32 0
-16 -144 0
-32 -144 0
16 32 144 0
c gate 145 16 32 0
16 -145 0
32 -145 0
-16 -32 145 0
c gate 146 -144 -145 0
-144 -146 0
-145 -146 0
144 145 146 0
c gate 147 143 146 0
143 -147 0
146 -147 0
-143 -146 147 0
c gate 148 139 147 0
139 -148 0
147 -148 0
-139 -147 148 0
c gate 149 -56 -148 0
-56 -149 0
-148 -149 0
56 148 149 0
c gate 150 -91 133 0
-91 -150 0
133 -150 0
91 -133 150 0
c gate 151 -140 -150 0
-140 -151 0
-150 -151 0
140 150 151 0
c gate 152 -91 135 0
-91 -152 0
135 -152 0
91 -135 152 0
c gate 153 -136 -152 0
-136 -153 0
-152 -153 0
136 152 153 0
c gate 154 -151 -153 0
-151 -154 0
-153 -154 0
151 153 154 0
c gate 155 151 153 0
151 -155 0
153 -155 0
-151 -153 155 0
c gate 156 -154 -155 0
-154 -156 0
-155 -156 0
154 155 156 0
c gate 157 -71 -127 0
-71 -157 0
-127 -157 0
71 127 157 0
c gate 158 -100 157 0
-100 -158 0
157 -158 0
100 -157 158 0
c gate 159 -66 -96 0
-66 -159 0
-96 -159 0
66 96 159 0
c gate 160 -158 159 0
-158 -160 0
159 -160 0
158 -159 160 0
c gate 161 -67 -160 0
-67 -161 0
-160 -161 0
67 160 161 0
c gate 162 -95 130 0
-95 -162 0
130 -162 0
95 -130 162 0
c gate 163 161 -162 0
161 -163 0
-162 -163 0
-161 162 163 0
c gate 164 95 -130 0
95 -164 0
-130 -164 0
-95 130 164 0
c gate 165 -161 -164 0
-161 -165 0
-164 -165 0
161 164 165 0
c gate 166 -163 -165 0
-163 -166 0
-165 -166 0
163 165 166 0
c gate 167 156 166 0
156 -167 0
166 -167 0
-156 -166 167 0
c gate 168 -143 -146 0
-143 -168 0
-146 -168 0
143 146 168 0
c gate 169 -147 -168 0
-147 -169 0
-168 -169 0
147 168 169 0
c gate 170 139 -146 0
139 -170 0
-146 -170 0
-139 146 170 0
c gate 171 -139 146 0
-139 -171 0
146 -171 0
139 -146 171 0
c gate 172 -170 -171 0
-170 -172 0
-171 -172 0
170 171 172 0
c gate 173 -169 172 0
-169 -173 0
172 -173 0
169 -172 173 0
c gate 174 169 -172 0
169 -174 0
-172 -174 0
-169 172 174 0
c gate 175 -88 141 0
-88 -175 0
141 -175 0
88 -141 175 0
c gate 176 -142 -175 0
-142 -176 0
-175 -176 0
142 175 176 0
c gate 177 -88 137 0
-88 -177 0
137 -177 0
88 -137 177 0
c gate 178 -138 -177 0
-138 -178 0
-177 -178 0
138 177 178 0
c gate 179 -176 -178 0
-176 -179 0
-178 -179 0
176 178 179 0
c gate 180 176 178 0
176 -180 0
178 -180 0
-176 -178 180 0
c gate 181 -92 -132 0
-92 -181 0
-132 -181 0
92 132 181 0
c gate 182 131 -181 0
131 -182 0
-181 -182 0
-131 181 182 0
c gate 183 -154 -182 0
-154 -183 0
-182 -183 0
154 182 183 0
c gate 184 -180 -183 0
-180 -184 0
-183 -184 0
180 183 184 0
c gate 185 -179 -184 0
-179 -185 0
-184 -185 0
179 184 185 0
c gate 186 -174 185 0
-174 -186 0
185 -186 0
174 -185 186 0
c gate 187 -173 -186 0
-173 -187 0
-186 -187 0
173 186 187 0
c gate 188 -167 -187 0
-167 -188 0
-187 -188 0
167 187 188 0
c gate 189 -123 -131 0
-123 -189 0
-131 -189 0
123 131 189 0
c gate 190 156 189 0
156 -190 0
189 -190 0
-156 -189 190 0
c gate 191 -188 -190 0
-188 -191 0
-190 -191 0
188 190 191 0
c gate 192 149 191 0
149 -192 0
191 -192 0
-149 -191 192 0
c gate 193 56 -121 0
56 -193 0
-121 -193 0
-56 121 193 0
c gate 194 -56 146 0
-56 -194 0
146 -194 0
56 -146 194 0
c gate 195 174 194 0
174 -195 0
194 -195 0
-174 -194 195 0
c gate 196 -193 -195 0
-193 -196 0
-195 -196 0
193 195 196 0
c gate 197 -192 196 0
-192 -197 0
196 -197 0
192 -196 197 0
c gate 198 -62 -197 0
-62 -198 0
-197 -198 0
62 197 198 0
c gate 199 -96 -127 0
-96 -199 0
-127 -199 0
96 127 199 0
c gate 200 -73 -199 0
-73 -200 0
-199 -200 0
73 199 200 0
c gate 201 -64 200 0
-64 -201 0
200 -201 0
64 -200 201 0
c gate 202 -65 -201 0
-65 -202 0
-201 -202 0
65 201 202 0
c gate 203 -198 -202 0
-198 -203 0
-202 -203 0
198 202 203 0
c gate 204 -85 203 0
-85 -204 0
203 -204 0
85 -203 204 0
c gate 205 -82 -204 0
-82 -205 0
-204 -205 0
82 204 205 0
c gate 206 -88 -91 0
-88 -206 0
-91 -206 0
88 91 206 0
c gate 207 -95 -146 0
-95 -207 0
-146 -207 0
95 146 207 0
c gate 208 -181 207 0
-181 -208 0
207 -208 0
181 -207 208 0
c gate 209 206 208 0
206 -209 0
208 -209 0
-206 -208 209 0
c gate 210 82 209 0
82 -210 0
209 -210 0
-82 -209 210 0
c gate 211 -205 -210 0
-205 -211 0
-210 -211 0
205 210 211 0
c gate 212 119 121 0
119 -212 0
121 -212 0
-119 -121 212 0
c gate 213 -120 -212 0
-120 -213 0
-212 -213 0
120 212 213 0
c gate 214 -166 213 0
-166 -214 0
213 -214 0
166 -213 214 0
c gate 215 -131 -214 0
-131 -215 0
-214 -215 0
131 214 215 0
c gate 216 156 215 0
156 -216 0
215 -216 0
-156 -215 216 0
c gate 217 -187 -216 0
-187 -217 0
-216 -217 0
187 216 217 0
c gate 218 149 -217 0
149 -218 0
-217 -218 0
-149 217 218 0
c gate 219 196 -218 0
196 -219 0
-218 -219 0
-196 218 219 0
c gate 220 -211 -219 0
-211 -220 0
-219 -220 0
211 219 220 0
c gate 221 197 211 0
197 -221 0
211 -221 0
-197 -211 221 0
c gate 222 -220 -221 0
-220 -222 0
-221 -222 0
220 221 222 0
c gate 223 65 222 0
65 -223 0
222 -223 0
-65 -222 223 0
c gate 224 -65 -222 0
-65 -224 0
-222 -224 0
65 222 224 0
c gate 225 -223 -224 0
-223 -225 0
-224 -225 0
223 224 225 0
c PO
-225 0
